NAME: location10
TYPE: TSP
COMMENT: 10 simutaion
DIMENSION: 10
EDGE_WEIGHT_TYPE : EUC_2D
NODE_COORD_SECTION
1 37 52
2 30 48
3 49 49
4 43 67
5 52 64
6 58 48
7 20 26
8 58 27
9 40 30
10 37 69
11 21 47
12 38 46
13 17 63
14 46 10
15 31 62
16 61 33
17 52 33
18 62 63
19 51 21
20 63 69
21 42 41
22 32 22
23 31 32
24 45 35
25 5 25
26 59 15
27 12 42
28 5 6
29 36 16
30 10 17
31 52 41
32 21 10
33 27 23
34 5 64
35 17 33
36 30 15
37 13 13
38 39 10
39 57 58
40 32 39
41 62 42
42 25 32
43 42 57
44 25 55
45 16 57
46 48 28
47 8 52
48 56 37
49 7 38
50 30 40
51 27 78
EOF
